(set-logic QF_UF)
(declare-fun A0 () Bool)
(declare-fun A1 () Bool)
(declare-fun A2 () Bool)
(declare-fun A3 () Bool)
(declare-fun A4 () Bool)
(declare-fun A5 () Bool)
(declare-fun A6 () Bool)
(declare-fun A7 () Bool)
(declare-fun A8 () Bool)
(declare-fun A10 () Bool)
(declare-fun A11 () Bool)
(declare-fun A12 () Bool)
(declare-fun A14 () Bool)
(declare-fun A15 () Bool)
(declare-fun A17 () Bool)
(declare-fun A18 () Bool)
(declare-fun A19 () Bool)
(declare-fun A20 () Bool)
(declare-fun A21 () Bool)
(declare-fun A22 () Bool)
(declare-fun A23 () Bool)
(declare-fun A24 () Bool)
(assert (let ((.def_0 (not A7))) (let ((.def_1 (not A15))) (let ((.def_2 (= .def_1 .def_0))) (let ((.def_3 (not .def_2))) (let ((.def_4 (= A8 A4))) (let ((.def_5 (and .def_4 .def_3))) (let ((.def_6 (not .def_5))) (let ((.def_7 (or A0 A15))) (let ((.def_8 (or .def_0 A20))) (let ((.def_9 (not .def_8))) (let ((.def_10 (and .def_9 .def_7))) (let ((.def_11 (or .def_10 .def_6))) (let ((.def_12 (not .def_11))) (let ((.def_13 (not A3))) (let ((.def_14 (and .def_13 A8))) (let ((.def_15 (not A22))) (let ((.def_16 (= .def_15 .def_1))) (let ((.def_17 (not .def_16))) (let ((.def_18 (and .def_17 .def_14))) (let ((.def_19 (not .def_18))) (let ((.def_20 (or A1 A20))) (let ((.def_21 (not A12))) (let ((.def_22 (or A11 .def_21))) (let ((.def_23 (= .def_22 .def_20))) (let ((.def_24 (and .def_23 .def_19))) (let ((.def_25 (not .def_24))) (let ((.def_26 (and .def_25 .def_12))) (let ((.def_27 (not A11))) (let ((.def_28 (not A5))) (let ((.def_29 (or .def_28 .def_27))) (let ((.def_30 (not .def_29))) (let ((.def_31 (not A21))) (let ((.def_32 (not A2))) (let ((.def_33 (and .def_32 .def_31))) (let ((.def_34 (not .def_33))) (let ((.def_35 (and .def_34 .def_30))) (let ((.def_36 (not .def_35))) (let ((.def_37 (not A0))) (let ((.def_38 (not A18))) (let ((.def_39 (and .def_38 .def_37))) (let ((.def_40 (and A19 .def_15))) (let ((.def_41 (not .def_40))) (let ((.def_42 (and .def_41 .def_39))) (let ((.def_43 (or .def_42 .def_36))) (let ((.def_44 (or A12 A14))) (let ((.def_45 (= A12 A22))) (let ((.def_46 (or .def_45 .def_44))) (let ((.def_47 (not .def_46))) (let ((.def_48 (not A4))) (let ((.def_49 (and .def_48 A12))) (let ((.def_50 (or A24 A3))) (let ((.def_51 (or .def_50 .def_49))) (let ((.def_52 (or .def_51 .def_47))) (let ((.def_53 (not .def_52))) (let ((.def_54 (= .def_53 .def_43))) (let ((.def_55 (or .def_54 .def_26))) (let ((.def_56 (not .def_55))) (let ((.def_57 (not A8))) (let ((.def_58 (not A23))) (let ((.def_59 (or .def_58 .def_57))) (let ((.def_60 (not .def_59))) (let ((.def_61 (or .def_27 A6))) (let ((.def_62 (not .def_61))) (let ((.def_63 (and .def_62 .def_60))) (let ((.def_64 (not .def_63))) (let ((.def_65 (not A17))) (let ((.def_66 (or .def_65 .def_32))) (let ((.def_67 (= A19 A12))) (let ((.def_68 (or .def_67 .def_66))) (let ((.def_69 (or .def_68 .def_64))) (let ((.def_70 (not .def_69))) (let ((.def_71 (and .def_28 A7))) (let ((.def_72 (not .def_71))) (let ((.def_73 (= A15 .def_31))) (let ((.def_74 (not .def_73))) (let ((.def_75 (or .def_74 .def_72))) (let ((.def_76 (not A10))) (let ((.def_77 (or A5 .def_76))) (let ((.def_78 (not .def_77))) (let ((.def_79 (and A5 .def_57))) (let ((.def_80 (not .def_79))) (let ((.def_81 (or .def_80 .def_78))) (let ((.def_82 (and .def_81 .def_75))) (let ((.def_83 (not .def_82))) (let ((.def_84 (and .def_83 .def_70))) (let ((.def_85 (and A23 .def_58))) (let ((.def_86 (not .def_85))) (let ((.def_87 (not A20))) (let ((.def_88 (and .def_76 .def_87))) (let ((.def_89 (not .def_88))) (let ((.def_90 (and .def_89 .def_86))) (let ((.def_91 (and A12 .def_48))) (let ((.def_92 (or .def_15 A17))) (let ((.def_93 (not .def_92))) (let ((.def_94 (= .def_93 .def_91))) (let ((.def_95 (and .def_94 .def_90))) (let ((.def_96 (or A23 A12))) (let ((.def_97 (and .def_28 A11))) (let ((.def_98 (or .def_97 .def_96))) (let ((.def_99 (or A11 .def_76))) (let ((.def_100 (or A17 A15))) (let ((.def_101 (not .def_100))) (let ((.def_102 (and .def_101 .def_99))) (let ((.def_103 (or .def_102 .def_98))) (let ((.def_104 (or .def_103 .def_95))) (let ((.def_105 (not .def_104))) (let ((.def_106 (and .def_105 .def_84))) (let ((.def_107 (not .def_106))) (let ((.def_108 (or .def_107 .def_56))) (let ((.def_109 (not .def_108))) .def_109)))))))))))))))))))))))))))))))))))))))))))))))))))))))))))))))))))))))))))))))))))))))))))))))))))))))))))))))
(check-sat)
